BAYES
100
2 2 2 2 2 2 2 2 2 2 2 2 2 2 2 2 2 2 2 2 2 2 2 2 2 2 2 2 2 2 2 2 2 2 2 2 2 2 2 2 2 2 2 2 2 2 2 2 2 2 2 2 2 2 2 2 2 2 2 2 2 2 2 2 2 2 2 2 2 2 2 2 2 2 2 2 2 2 2 2 2 2 2 2 2 2 2 2 2 2 2 2 2 2 2 2 2 2 2 2
100
1 0
2 0 1
2 1 2
2 2 3
2 3 4
2 4 5
2 5 6
2 6 7
2 7 8
2 8 9
2 0 10
3 1 10 11
3 2 11 12
3 3 12 13
3 4 13 14
3 5 14 15
3 6 15 16
3 7 16 17
3 8 17 18
3 9 18 19
2 10 20
3 11 20 21
3 12 21 22
3 13 22 23
3 14 23 24
3 15 24 25
3 16 25 26
3 17 26 27
3 18 27 28
3 19 28 29
2 20 30
3 21 30 31
3 22 31 32
3 23 32 33
3 24 33 34
3 25 34 35
3 26 35 36
3 27 36 37
3 28 37 38
3 29 38 39
2 30 40
3 31 40 41
3 32 41 42
3 33 42 43
3 34 43 44
3 35 44 45
3 36 45 46
3 37 46 47
3 38 47 48
3 39 48 49
2 40 50
3 41 50 51
3 42 51 52
3 43 52 53
3 44 53 54
3 45 54 55
3 46 55 56
3 47 56 57
3 48 57 58
3 49 58 59
2 50 60
3 51 60 61
3 52 61 62
3 53 62 63
3 54 63 64
3 55 64 65
3 56 65 66
3 57 66 67
3 58 67 68
3 59 68 69
2 60 70
3 61 70 71
3 62 71 72
3 63 72 73
3 64 73 74
3 65 74 75
3 66 75 76
3 67 76 77
3 68 77 78
3 69 78 79
2 70 80
3 71 80 81
3 72 81 82
3 73 82 83
3 74 83 84
3 75 84 85
3 76 85 86
3 77 86 87
3 78 87 88
3 79 88 89
2 80 90
3 81 90 91
3 82 91 92
3 83 92 93
3 84 93 94
3 85 94 95
3 86 95 96
3 87 96 97
3 88 97 98
3 89 98 99

2
0.408956 0.591044
4
1.0 0.0 0.0 1.0
4
0.0 1.0 1.0 0.0
4
0.0 1.0 1.0 0.0
4
1.0 0.0 0.0 1.0
4
0.0 1.0 1.0 0.0
4
1.0 0.0 0.0 1.0
4
0.0 1.0 1.0 0.0
4
0.0 1.0 1.0 0.0
4
1.0 0.0 0.0 1.0
4
1.0 0.0 0.0 1.0
8
0.0 1.0 1.0 0.0 1.0 0.0 1.0 0.0
8
0.0 1.0 0.0 1.0 1.0 0.0 0.0 1.0
8
0.0 1.0 1.0 0.0 1.0 0.0 0.0 1.0
8
0.0 1.0 0.0 1.0 1.0 0.0 1.0 0.0
8
0.0 1.0 0.0 1.0 1.0 0.0 0.0 1.0
8
1.0 0.0 0.0 1.0 0.0 1.0 1.0 0.0
8
0.812689 0.187311 0.112664 0.887336 0.466838 0.533162 0.655016 0.344984
8
0.0 1.0 1.0 0.0 0.0 1.0 0.0 1.0
8
0.0 1.0 0.0 1.0 0.0 1.0 1.0 0.0
4
0.0 1.0 1.0 0.0
8
0.0 1.0 1.0 0.0 0.0 1.0 0.0 1.0
8
1.0 0.0 0.0 1.0 0.0 1.0 0.0 1.0
8
0.0 1.0 1.0 0.0 0.0 1.0 1.0 0.0
8
1.0 0.0 0.0 1.0 0.0 1.0 0.0 1.0
8
0.367514 0.632486 0.107672 0.892328 0.224668 0.775332 0.401761 0.598239
8
0.0 1.0 1.0 0.0 0.0 1.0 1.0 0.0
8
0.157003 0.842997 0.899962 0.100038 0.514638 0.485362 0.681265 0.318735
8
0.0 1.0 1.0 0.0 0.0 1.0 0.0 1.0
8
0.428223 0.571777 0.103263 0.896737 0.541448 0.458552 0.380992 0.619008
4
0.0 1.0 1.0 0.0
8
0.0 1.0 1.0 0.0 1.0 0.0 0.0 1.0
8
0.0 1.0 1.0 0.0 1.0 0.0 0.0 1.0
8
0.136904 0.863096 0.326266 0.673734 0.525789 0.474211 0.131541 0.868459
8
0.0 1.0 0.0 1.0 0.0 1.0 1.0 0.0
8
0.697731 0.302269 0.653188 0.346812 0.621688 0.378312 0.125954 0.874046
8
0.163135 0.836865 0.506946 0.493054 0.10203 0.89797 0.26156 0.73844
8
0.156761 0.843239 0.571978 0.428022 0.972044 0.0279555 0.993407 0.00659295
8
0.0 1.0 1.0 0.0 0.0 1.0 1.0 0.0
8
0.466506 0.533494 0.631655 0.368345 0.346599 0.653401 0.598047 0.401953
4
1.0 0.0 0.0 1.0
8
1.0 0.0 1.0 0.0 1.0 0.0 0.0 1.0
8
0.0 1.0 1.0 0.0 1.0 0.0 0.0 1.0
8
0.975303 0.0246971 0.574246 0.425754 0.15037 0.84963 0.928672 0.0713275
8
0.0 1.0 0.0 1.0 1.0 0.0 1.0 0.0
8
0.779135 0.220865 0.301859 0.698141 0.304497 0.695503 0.599944 0.400056
8
0.936152 0.0638478 0.946543 0.0534572 0.366412 0.633588 0.0510764 0.948924
8
0.0 1.0 0.0 1.0 0.0 1.0 1.0 0.0
8
1.0 0.0 0.0 1.0 1.0 0.0 0.0 1.0
8
0.0490069 0.950993 0.149627 0.850373 0.435442 0.564558 0.199377 0.800623
4
1.0 0.0 0.0 1.0
8
0.979017 0.0209834 0.890862 0.109138 0.893982 0.106018 0.978125 0.0218753
8
1.0 0.0 0.0 1.0 0.0 1.0 0.0 1.0
8
1.0 0.0 0.0 1.0 0.0 1.0 0.0 1.0
8
0.600385 0.399615 0.29894 0.70106 0.61447 0.38553 0.0349075 0.965093
8
0.0 1.0 0.0 1.0 0.0 1.0 1.0 0.0
8
1.0 0.0 0.0 1.0 0.0 1.0 1.0 0.0
8
1.0 0.0 0.0 1.0 0.0 1.0 1.0 0.0
8
1.0 0.0 0.0 1.0 1.0 0.0 1.0 0.0
8
1.0 0.0 1.0 0.0 1.0 0.0 0.0 1.0
4
1.0 0.0 0.0 1.0
8
0.0 1.0 1.0 0.0 0.0 1.0 1.0 0.0
8
0.932275 0.0677252 0.173682 0.826318 0.210054 0.789946 0.261133 0.738867
8
1.0 0.0 0.0 1.0 1.0 0.0 1.0 0.0
8
0.0 1.0 0.0 1.0 0.0 1.0 1.0 0.0
8
0.0 1.0 1.0 0.0 0.0 1.0 1.0 0.0
8
0.0669268 0.933073 0.585447 0.414553 0.59321 0.40679 0.802858 0.197142
8
1.0 0.0 0.0 1.0 1.0 0.0 0.0 1.0
8
0.0 1.0 0.0 1.0 0.0 1.0 1.0 0.0
8
0.403234 0.596766 0.948326 0.0516736 0.795589 0.204411 0.421989 0.578011
4
1.0 0.0 0.0 1.0
8
1.0 0.0 1.0 0.0 0.0 1.0 1.0 0.0
8
0.0 1.0 1.0 0.0 0.0 1.0 0.0 1.0
8
0.0 1.0 1.0 0.0 1.0 0.0 1.0 0.0
8
0.862106 0.137894 0.182724 0.817276 0.187092 0.812908 0.401745 0.598255
8
0.0 1.0 1.0 0.0 0.0 1.0 0.0 1.0
8
1.0 0.0 1.0 0.0 0.0 1.0 0.0 1.0
8
0.0 1.0 0.0 1.0 0.0 1.0 1.0 0.0
8
0.694683 0.305317 0.760207 0.239793 0.949038 0.0509622 0.181933 0.818067
8
0.0 1.0 0.0 1.0 1.0 0.0 0.0 1.0
4
0.0 1.0 1.0 0.0
8
0.428743 0.571257 0.798021 0.201979 0.191998 0.808002 0.997352 0.00264772
8
0.673659 0.326341 0.421246 0.578754 0.504129 0.495871 0.103646 0.896354
8
1.0 0.0 0.0 1.0 0.0 1.0 1.0 0.0
8
0.0 1.0 1.0 0.0 1.0 0.0 1.0 0.0
8
0.492551 0.507449 0.405666 0.594334 0.143529 0.856471 0.738311 0.261689
8
1.0 0.0 0.0 1.0 0.0 1.0 1.0 0.0
8
1.0 0.0 1.0 0.0 0.0 1.0 1.0 0.0
8
1.0 0.0 1.0 0.0 1.0 0.0 0.0 1.0
8
0.0 1.0 1.0 0.0 0.0 1.0 1.0 0.0
4
0.773801 0.226199 0.825453 0.174547
8
0.0 1.0 1.0 0.0 1.0 0.0 1.0 0.0
8
0.774932 0.225068 0.753312 0.246688 0.3365 0.6635 0.0474126 0.952587
8
0.0 1.0 1.0 0.0 0.0 1.0 1.0 0.0
8
1.0 0.0 0.0 1.0 0.0 1.0 1.0 0.0
8
1.0 0.0 0.0 1.0 1.0 0.0 0.0 1.0
8
0.853761 0.146239 0.479241 0.520759 0.598774 0.401226 0.627562 0.372438
8
0.0 1.0 0.0 1.0 1.0 0.0 1.0 0.0
8
1.0 0.0 0.0 1.0 1.0 0.0 0.0 1.0
8
1.0 0.0 0.0 1.0 1.0 0.0 1.0 0.0